c uprop, v00.0, 
c reading from data/prog549.c.cnf
c done reading: 0.00478
p cnf 125 554
-70 -74 0
70 74 0
-78 -83 0
78 83 0
-86 -90 0
86 90 0
-80 -93 0
80 93 0
-72 -96 0
72 96 0
-70 76 0
70 -76 0
70 -76 -98 0
-76 -98 0
-70 76 98 0
76 98 0
-70 -78 85 0
-76 -78 85 0
-70 -76 85 0
70 78 -85 0
76 78 -85 0
70 76 -85 0
-68 78 -85 0
-68 70 -85 0
-68 76 -85 0
68 -78 85 0
68 -70 85 0
68 -76 85 0
68 -70 -76 -78 0
-68 70 76 78 0
66 -78 -86 0
66 -85 -86 0
66 -78 -85 0
-66 78 86 0
-66 85 86 0
-66 78 85 0
-65 -66 86 0
-65 -66 78 0
-65 -66 85 0
65 66 -86 0
65 66 -78 0
65 66 -85 0
65 -78 -85 -86 0
-65 78 85 86 0
63 -86 -93 0
63 -66 -93 0
63 -66 -86 0
-63 86 93 0
-63 66 93 0
-63 66 86 0
-62 -63 93 0
-62 -63 86 0
-62 -63 66 0
62 63 -93 0
62 63 -86 0
62 63 -66 0
62 -66 -86 -93 0
-62 66 86 93 0
61 -72 -93 0
61 -63 -72 0
61 -63 -93 0
-61 72 93 0
-61 63 72 0
-61 63 93 0
-60 -61 72 0
-60 -61 93 0
-60 -61 63 0
60 61 -72 0
60 61 -93 0
60 61 -63 0
60 -63 -72 -93 0
-60 63 72 93 0
-59 72 0
-59 61 0
59 -61 -72 0
-61 -69 -72 0
61 -69 72 0
61 69 -72 0
-61 69 72 0
87 -98 0
-87 98 0
-87 -94 98 0
-87 -94 0
87 94 -98 0
87 94 0
-68 71 -87 0
68 -71 0
68 -71 87 0
-71 87 0
-58 68 -71 0
-58 -71 0
-58 -71 87 0
58 -68 71 0
58 71 -87 0
-58 68 87 0
-65 -70 81 0
-65 -71 81 0
-70 -71 81 0
65 70 -81 0
65 71 -81 0
70 71 -81 0
-57 65 -81 0
-57 70 -81 0
-57 71 -81 0
57 -65 81 0
57 -70 81 0
57 -71 81 0
57 -65 -70 -71 0
-57 65 70 71 0
-62 -78 88 0
-62 -81 88 0
-78 -81 88 0
62 78 -88 0
62 81 -88 0
78 81 -88 0
62 -88 -99 0
78 -88 -99 0
81 -88 -99 0
-62 88 99 0
-78 88 99 0
-81 88 99 0
-62 -78 -81 99 0
62 78 81 -99 0
-60 -86 100 0
-60 -88 100 0
-86 -88 100 0
60 86 -100 0
60 88 -100 0
86 88 -100 0
60 -100 -101 0
86 -100 -101 0
88 -100 -101 0
-60 100 101 0
-86 100 101 0
-88 100 101 0
-60 -86 -88 101 0
60 86 88 -101 0
-69 -93 102 0
-69 -100 102 0
-93 -100 102 0
69 93 -102 0
69 100 -102 0
93 100 -102 0
69 -102 -103 0
93 -102 -103 0
100 -102 -103 0
-69 102 103 0
-93 102 103 0
-100 102 103 0
-69 -93 -100 103 0
69 93 100 -103 0
-59 -72 104 0
-59 -102 104 0
-72 -102 104 0
59 72 -104 0
59 102 -104 0
72 102 -104 0
59 -104 -105 0
72 -104 -105 0
102 -104 -105 0
-59 104 105 0
-72 104 105 0
-102 104 105 0
-59 -72 -102 105 0
59 72 102 -105 0
94 -106 0
-94 106 0
-94 -107 0
94 107 0
-58 108 0
-58 -106 108 0
-106 108 0
58 106 -108 0
58 -108 -109 0
106 -108 -109 0
-58 108 109 0
108 109 0
-106 108 109 0
-58 -106 109 0
-57 -108 110 0
57 -110 0
57 108 -110 0
108 -110 0
57 -110 -111 0
-110 -111 0
108 -110 -111 0
-57 110 111 0
-108 110 111 0
57 108 -111 0
-70 -99 112 0
-99 -110 112 0
-70 -110 112 0
70 99 -112 0
99 110 -112 0
70 110 -112 0
99 -112 -113 0
70 -112 -113 0
110 -112 -113 0
-99 112 113 0
-70 112 113 0
-110 112 113 0
-70 -99 -110 113 0
70 99 110 -113 0
-78 -101 114 0
-101 -112 114 0
-78 -112 114 0
78 101 -114 0
101 112 -114 0
78 112 -114 0
101 -114 -115 0
78 -114 -115 0
112 -114 -115 0
-101 114 115 0
-78 114 115 0
-112 114 115 0
-78 -101 -112 115 0
78 101 112 -115 0
-86 -103 116 0
-103 -114 116 0
-86 -114 116 0
86 103 -116 0
103 114 -116 0
86 114 -116 0
103 -116 -117 0
86 -116 -117 0
114 -116 -117 0
-103 116 117 0
-86 116 117 0
-114 116 117 0
-86 -103 -114 117 0
86 103 114 -117 0
-93 -105 118 0
-105 -116 118 0
-93 -116 118 0
93 105 -118 0
105 116 -118 0
93 116 -118 0
105 -118 -119 0
93 -118 -119 0
116 -118 -119 0
-105 118 119 0
-93 118 119 0
-116 118 119 0
-93 -105 -116 119 0
93 105 116 -119 0
-72 -104 120 0
-104 -118 120 0
-72 -118 120 0
72 104 -120 0
104 118 -120 0
72 118 -120 0
104 -120 -121 0
72 -120 -121 0
118 -120 -121 0
-104 120 121 0
-72 120 121 0
-118 120 121 0
-72 -104 -118 121 0
72 104 118 -121 0
111 -122 0
-111 122 0
-111 -123 0
111 123 0
75 -113 0
75 -113 -122 0
75 -122 0
-75 113 122 0
-75 113 -124 0
-75 122 -124 0
75 -113 124 0
75 124 0
75 -122 124 0
-113 -122 124 0
-75 84 -115 0
-84 115 0
75 -84 115 0
75 -84 0
-84 115 -125 0
-84 -125 0
75 -84 -125 0
84 -115 125 0
-75 84 125 0
75 115 -125 0
-70 91 -117 0
-84 91 -117 0
-70 -84 91 0
70 -91 117 0
84 -91 117 0
70 84 -91 0
-56 -91 117 0
-56 70 -91 0
-56 84 -91 0
56 91 -117 0
56 -70 91 0
56 -84 91 0
56 -70 -84 -117 0
-56 70 84 117 0
55 -78 -119 0
55 -91 -119 0
55 -78 -91 0
-55 78 119 0
-55 91 119 0
-55 78 91 0
-54 -55 119 0
-54 -55 78 0
-54 -55 91 0
54 55 -119 0
54 55 -78 0
54 55 -91 0
54 -78 -91 -119 0
-54 78 91 119 0
53 -86 -121 0
53 -55 -121 0
53 -55 -86 0
-53 86 121 0
-53 55 121 0
-53 55 86 0
-52 -53 121 0
-52 -53 86 0
-52 -53 55 0
52 53 -121 0
52 53 -86 0
52 53 -55 0
52 -55 -86 -121 0
-52 55 86 121 0
51 -93 -120 0
51 -53 -120 0
51 -53 -93 0
-51 93 120 0
-51 53 120 0
-51 53 93 0
-50 -51 120 0
-50 -51 93 0
-50 -51 53 0
50 51 -120 0
50 51 -93 0
50 51 -53 0
50 -53 -93 -120 0
-50 53 93 120 0
-49 72 0
-49 51 0
49 -51 -72 0
-48 -51 -72 0
-48 51 72 0
48 51 -72 0
48 -51 72 0
-47 -107 0
47 107 0
-46 -109 0
46 109 0
-45 -123 0
45 123 0
-44 -124 0
44 124 0
-43 -125 0
43 125 0
-42 -56 0
42 56 0
-41 -54 0
41 54 0
-40 -52 0
40 52 0
-50 -77 0
50 77 0
-48 -92 0
48 92 0
-39 -49 0
39 49 0
-37 -38 0
-36 -37 0
36 37 38 0
-35 36 38 0
-35 -36 -38 0
35 36 -38 0
35 -36 38 0
-33 37 0
-33 -34 0
33 34 -37 0
-31 34 -37 0
-31 -34 37 0
31 34 37 0
31 -34 -37 0
-29 33 0
-29 -32 0
29 32 -33 0
-27 32 -33 0
-27 -32 33 0
27 32 33 0
27 -32 -33 0
-25 29 0
-25 -30 0
25 -29 30 0
-23 -29 30 0
-23 29 -30 0
23 29 30 0
23 -29 -30 0
-22 25 0
-22 -28 0
22 -25 28 0
-21 -25 28 0
-21 25 -28 0
21 25 28 0
21 -25 -28 0
-20 22 0
-20 -26 0
20 -22 26 0
-19 -22 26 0
-19 22 -26 0
19 22 26 0
19 -22 -26 0
-18 20 0
-18 -24 0
18 -20 24 0
-17 -20 24 0
-17 20 -24 0
17 20 24 0
17 -20 -24 0
-16 -38 0
-16 -36 0
16 36 38 0
-15 36 38 0
-15 -36 -38 0
15 36 -38 0
15 -36 38 0
-14 16 0
-14 -34 0
14 -16 34 0
-13 -16 34 0
-13 16 -34 0
13 16 34 0
13 -16 -34 0
-12 14 0
-12 -32 0
12 -14 32 0
-11 -14 32 0
-11 14 -32 0
11 14 32 0
11 -14 -32 0
-10 12 0
-10 -30 0
10 -12 30 0
-9 -12 30 0
-9 12 -30 0
9 12 30 0
9 -12 -30 0
-8 10 0
-8 -28 0
8 -10 28 0
-7 -10 28 0
-7 10 -28 0
7 10 28 0
7 -10 -28 0
-6 8 0
-6 -26 0
6 -8 26 0
-5 -8 26 0
-5 8 -26 0
5 8 26 0
5 -8 -26 0
-4 6 0
-4 -24 0
4 -6 24 0
-3 -6 24 0
-3 6 -24 0
3 6 24 0
3 -6 -24 0
-73 107 0
38 -73 0
-38 73 -107 0
-38 -107 0
38 107 0
-36 82 -109 0
-73 82 -109 0
-36 -73 82 0
36 -82 109 0
73 -82 109 0
36 73 -82 0
82 -109 0
-36 82 0
-73 82 0
-36 -73 -109 0
-34 89 -123 0
-82 89 -123 0
-34 -82 89 0
34 -89 123 0
82 -89 123 0
34 82 -89 0
89 -123 0
-34 89 0
-82 89 0
-34 -82 -123 0
-32 79 -124 0
79 -89 -124 0
-32 79 -89 0
32 -79 124 0
-79 89 124 0
32 -79 89 0
79 -124 0
-32 79 0
79 -89 0
-32 -89 -124 0
-30 95 -125 0
-79 95 -125 0
-30 -79 95 0
30 -95 125 0
79 -95 125 0
30 79 -95 0
95 -125 0
-30 95 0
-79 95 0
-30 -79 -125 0
2 -28 -56 0
2 -56 -95 0
2 -28 -95 0
-2 28 56 0
-2 56 95 0
-2 28 95 0
2 -56 0
2 -28 0
2 -95 0
-28 -56 -95 0
1 -26 -54 0
1 -2 -54 0
1 -2 -26 0
-1 26 54 0
-1 2 54 0
-1 2 26 0
1 -54 0
1 -26 0
1 -2 0
-2 -26 -54 0
-24 -52 97 0
-1 -52 97 0
-1 -24 97 0
24 52 -97 0
1 52 -97 0
1 24 -97 0
-52 97 0
-24 97 0
-1 97 0
-1 -24 -52 0
50 -67 0
-67 97 0
-50 67 -97 0
-50 97 0
50 -97 0
48 -64 0
-64 67 0
-48 64 -67 0
-48 67 0
48 -67 0
-49 -64 0
-49 64 0
49 -64 0
